TOUR_SECTION
47
52
197
56
156
187
89
103
196
153
130
73
79
141
90
66
9
40
186
131
144
123
146
58
115
108
17
139
30
163
15
149
169
100
175
109
24
200
97
133
49
77
129
23
98
105
29
157
95
127
164
94
22
111
110
138
35
128
181
32
122
116
93
67
91
27
92
11
161
143
60
46
140
150
51
76
6
118
96
145
69
191
135
154
21
142
28
37
12
167
48
160
121
126
3
88
68
119
83
2
120
166
65
63
86
102
39
101
7
137
178
189
194
44
20
179
59
199
165
174
195
72
53
193
13
190
54
192
188
84
112
43
134
50
61
41
168
62
172
162
10
18
36
182
74
26
99
198
171
34
87
31
82
81
80
148
75
106
85
173
71
185
183
16
55
124
180
107
151
176
5
8
1
33
114
170
42
38
70
155
113
125
64
4
159
57
136
78
158
132
104
152
19
45
177
117
147
25
14
184
-1
EOF